c FILE: DSJR500.5
c
c SOURCE: David Johnson (dsj@research.att.com)
c
c DESCRIPTION: Geometric random graph.  DSJRx.y[c] is 
c              a geometric graph with x nodes randomly
c              distributed in the unit square, and and edge 
c              if the length of the corresponding line is
c              less than y.  This graph is then complemented 
c              if a "c" ends the file name.  Graphs were used in
c 
c              "Optimization by Simulated Annealing: An
c               Experimental Evaluation; Part II, Graph
c               Coloring and Number Partitioning" by
c              David S. Johnson, Cecilia R. Aragon, 
c              Lyle A. McGeoch and Catherine Schevon
c              Operations Research, 39, 378-406 (1991)
c
p edge 500 117724
e 3 1
e 3 2
e 4 2
e 6 1
e 6 2
e 6 3
e 6 4
e 7 1
e 7 5
e 8 4
e 8 6
e 9 1
e 9 2
e 9 4
e 9 5
e 9 6
e 9 7
e 9 8
e 10 1
e 10 3
e 10 6
e 10 7
e 10 9
e 11 5
e 11 7
e 12 5
e 12 11
e 13 1
e 13 3
e 13 7
e 13 9
e 13 10
e 13 11
e 14 5
e 14 7
e 14 8
e 14 9
e 14 11
e 14 12
e 15 1
e 15 7
e 15 10
e 15 11
e 15 13
e 16 2
e 16 4
e 16 6
e 16 8
e 16 9
e 17 5
e 17 8
e 17 9
e 17 12
e 17 14
e 17 16
e 18 1
e 18 2
e 18 3
e 18 4
e 18 6
e 18 9
e 18 10
e 18 13
e 18 15
e 19 1
e 19 2
e 19 3
e 19 4
e 19 6
e 19 8
e 19 9
e 19 10
e 19 16
e 19 18
e 20 1
e 20 3
e 20 6
e 20 7
e 20 9
e 20 10
e 20 13
e 20 15
e 20 18
e 20 19
e 21 1
e 21 7
e 21 10
e 21 11
e 21 13
e 21 15
e 22 1
e 22 2
e 22 3
e 22 4
e 22 6
e 22 7
e 22 8
e 22 9
e 22 10
e 22 13
e 22 15
e 22 16
e 22 18
e 22 19
e 22 20
e 23 1
e 23 2
e 23 4
e 23 6
e 23 7
e 23 8
e 23 9
e 23 10
e 23 13
e 23 14
e 23 15
e 23 16
e 23 17
e 23 18
e 23 19
e 23 20
e 23 22
e 24 2
e 24 4
e 24 6
e 24 8
e 24 9
e 24 16
e 24 17
e 24 18
e 24 19
e 24 22
e 24 23
e 25 2
e 25 4
e 25 6
e 25 8
e 25 9
e 25 16
e 25 17
e 25 19
e 25 22
e 25 24
e 26 1
e 26 2
e 26 3
e 26 4
e 26 6
e 26 8
e 26 9
e 26 10
e 26 13
e 26 16
e 26 18
e 26 19
e 26 20
e 26 22
e 26 23
e 26 24
e 26 25
e 27 1
e 27 3
e 27 7
e 27 10
e 27 13
e 27 15
e 27 18
e 27 20
e 27 21
e 28 1
e 28 2
e 28 3
e 28 6
e 28 10
e 28 13
e 28 15
e 28 18
e 28 19
e 28 20
e 28 22
e 28 23
e 28 26
e 28 27
e 29 5
e 29 8
e 29 9
e 29 11
e 29 12
e 29 14
e 29 17
e 30 5
e 30 8
e 30 12
e 30 14
e 30 17
e 30 29
e 31 1
e 31 5
e 31 7
e 31 11
e 31 12
e 31 13
e 31 14
e 31 15
e 31 21
e 31 23
e 31 29
e 32 1
e 32 3
e 32 6
e 32 7
e 32 9
e 32 10
e 32 13
e 32 15
e 32 18
e 32 19
e 32 20
e 32 21
e 32 22
e 32 23
e 32 26
e 32 27
e 32 28
e 33 1
e 33 5
e 33 6
e 33 7
e 33 8
e 33 9
e 33 10
e 33 11
e 33 12
e 33 13
e 33 14
e 33 15
e 33 18
e 33 19
e 33 20
e 33 21
e 33 22
e 33 23
e 33 26
e 33 29
e 33 31
e 33 32
e 34 1
e 34 2
e 34 3
e 34 4
e 34 6
e 34 9
e 34 10
e 34 18
e 34 19
e 34 20
e 34 22
e 34 23
e 34 24
e 34 25
e 34 26
e 34 28
e 34 32
e 35 5
e 35 6
e 35 7
e 35 8
e 35 9
e 35 11
e 35 12
e 35 14
e 35 16
e 35 17
e 35 22
e 35 23
e 35 26
e 35 29
e 35 30
e 35 31
e 35 33
e 36 1
e 36 5
e 36 7
e 36 9
e 36 10
e 36 11
e 36 12
e 36 13
e 36 14
e 36 15
e 36 21
e 36 22
e 36 23
e 36 29
e 36 31
e 36 32
e 36 33
e 36 35
e 37 1
e 37 5
e 37 7
e 37 9
e 37 10
e 37 11
e 37 12
e 37 13
e 37 14
e 37 15
e 37 21
e 37 23
e 37 29
e 37 31
e 37 33
e 37 35
e 37 36
e 38 7
e 38 11
e 38 13
e 38 15
e 38 21
e 38 31
e 38 33
e 38 36
e 38 37
e 39 5
e 39 7
e 39 11
e 39 13
e 39 14
e 39 15
e 39 21
e 39 31
e 39 33
e 39 36
e 39 37
e 39 38
e 40 1
e 40 3
e 40 10
e 40 13
e 40 15
e 40 18
e 40 20
e 40 22
e 40 23
e 40 26
e 40 27
e 40 28
e 40 32
e 40 34
e 41 1
e 41 7
e 41 10
e 41 11
e 41 13
e 41 15
e 41 20
e 41 21
e 41 27
e 41 31
e 41 32
e 41 33
e 41 36
e 41 37
e 41 38
e 41 39
e 41 40
e 42 1
e 42 2
e 42 3
e 42 4
e 42 6
e 42 10
e 42 18
e 42 19
e 42 20
e 42 22
e 42 23
e 42 24
e 42 26
e 42 27
e 42 28
e 42 32
e 42 34
e 42 40
e 43 5
e 43 6
e 43 8
e 43 9
e 43 12
e 43 14
e 43 16
e 43 17
e 43 22
e 43 23
e 43 24
e 43 29
e 43 30
e 43 33
e 43 35
e 44 1
e 44 7
e 44 10
e 44 11
e 44 13
e 44 14
e 44 15
